o10 = "+";
o90 = "+";
x100 = 8;

% 2nd line
x41 = 4;

% 3rd line : nothing

% 4th line
x03 = 4;
o53 = "+";
x63 = 2;

% 5th line
o04 = "+";
o44 = "*";
o84 = "*";
o124 = "*";

% 6th line
o15 = "+";
o95 = "+";

% 7th line : nothing

% 8th line
x27 = 3;
x107 = 4;

% 9th line
o28 = "-";
o108 = "-";

% 10th line
o19 = "-";
o99 = "*";

% 11th line

% 12th line : nothing

% 13th line
x012 = 7;
o512 = "+";
x612 = 3;

% 14th line
o013 = "+";
o413 = "*";
o813 = "*";
o1213 = "*";

% 15th line
o114 = "-";
x214 = 4;
o914 = "+";
x1014 = 5;